
  32    1
  10

   0   0  10 2 3 5 6 7 8 9 10 15 18 
   6   4   5 16 14 12 11 4 
   6  10  12 31 30 29 28 27 26 25 24 23 16 13 11 
   2   9  10 29 28 27 26 25 24 23 21 20 13 
   3   6   8 30 28 24 21 20 17 16 13 
   6   5   8 29 25 23 22 21 17 16 14 
   6  10   6 27 25 24 21 20 13 
   5   5   4 23 16 13 11 
   1  10   5 24 23 17 16 14 
   6   7   2 22 11 
   6  10   3 21 20 19 
   1   6   3 24 23 19 
   4   6   2 22 19 
   5  10   2 20 19 
   1   5   2 22 21 
   6   9   1 19 
   7   8   1 19 
   3  10   1 26 
   6   8   1 32
   9   8   1 32
   7   9   1 32
   4   9   1 32
   9   9   1 32
   2   6   1 32
   3  10   1 32
   7   6   1 32
   8   7   1 32
   2  10   1 32
   3  10   1 32
   7   8   1 32
  10  10   1 32
   0   0   0 
